25 50
1 2 5
1 6 4
2 3 5
2 7 3
3 4 5
3 8 5
4 5 2
4 9 2
5 10 4
6 7 3
6 11 1
7 8 2
7 12 3
8 9 3
8 13 5
9 10 1
9 14 5
10 15 3
11 12 1
11 16 5
12 13 3
12 17 3
13 14 5
13 18 1
14 15 2
14 19 5
15 20 1
16 17 3
16 21 1
17 18 1
17 22 5
18 19 3
18 23 1
19 20 5
19 24 4
20 25 4
21 22 5
22 23 5
23 24 1
24 25 4
1 21 4
2 22 2
3 23 1
4 24 5
5 25 3
1 5 3
6 10 1
11 15 2
16 20 2
21 25 1
